CMD:
./solvers/bin/cadical --plain --no-reduce -t 1600 ./data/cnfs//bj08amba2g3f3/bj08amba2g3f3.86.cnf

c --- [ banner ] -------------------------------------------------------------
c 
c CaDiCaL SAT Solver
c Copyright (c) 2016-2024
c A. Biere, M. Fleury, N. Froleyks, K. Fazekas, F. Pollitt, T. Faller
c JKU Linz, University of Freiburg, TU Wien
c 
c Version 2.1.3 5296d3d2a9bf48c154ab2acb5e44625776d821bf
c g++ (Gentoo 12.3.1_p20230526 p2) 12.3.1 20230526 -Wall -Wextra -O3 -DNDEBUG
c Sat Aug 9 07:26:21 PDT 2025 Linux cedar2.int.cedar.computecanada.ca 5.14.0-362.24.2.el9_3.x86_64 x86_64
c 
c --- [ limit ] --------------------------------------------------------------
c 
c setting time limit to 1600 seconds real time (due to '-t 1600')
c 
c --- [ parsing input ] ------------------------------------------------------
c 
c reading DIMACS file from './data/cnfs//bj08amba2g3f3/bj08amba2g3f3.86.cnf'
c opening file to read './data/cnfs//bj08amba2g3f3/bj08amba2g3f3.86.cnf'
c found 'p cnf 122698 365689' header
c parsed 365689 clauses in 0.06 seconds process time
c 
c --- [ options ] ------------------------------------------------------------
c 
c   --compact=false                (different from default 'true')
c   --decompose=false              (different from default 'true')
c   --deduplicate=false            (different from default 'true')
c   --elim=false                   (different from default 'true')
c   --probe=false                  (different from default 'true')
c   --reduce=false                 (different from default 'true')
c   --subsume=false                (different from default 'true')
c   --ternary=false                (different from default 'true')
c   --transred=false               (different from default 'true')
c   --vivify=false                 (different from default 'true')
c 
c --- [ solving ] ------------------------------------------------------------
c 
c time measured in process time since initialization
c 
c  seconds  reductions  redundant  irredundant
c         MB    restarts       trail       variables
c          level   conflicts       glue          remaining
c 
c *  0.06 59  0 0   0    0    0  0% 0 359541 117564 96%
c {  0.08 60  0 0   0    0    0  0% 0 359541 117564 96%
c i  0.09 61 24 0   0   89   81  6% 4 359541 117562 96%
c i  0.09 61 24 0   0   90   81  6% 4 359541 117560 96%
c i  0.09 61 24 0   0   91   81  6% 4 359541 117552 96%
c }  0.15 61 97 0   0 1001  883 17% 3 359541 117552 96%
c [  0.15 61  0 0   0 1001  883  0% 0 359541 117552 96%
c O  0.15 61  1 0   0 1002  883  6% 0 359541 117552 96%
c i  0.15 61  1 0   0 1002  883  6% 0 359541 117530 96%
c i  0.15 61  1 0   0 1003  883  6% 0 359541 117508 96%
c i  0.15 61  1 0   0 1004  883  7% 0 359541 117486 96%
c i  0.19 61 350 0   0 1144 1019 71% 3 359541 117243 96%
c i  0.26 61 382 0   1 2260 2045 77% 5 359541 117205 96%
c ]  0.32 62 547 0   1 3001 2713 71% 4 359541 117205 96%
c {  0.32 62 97 0   1 3001 2713 17% 3 359541 117205 96%
c F  0.32 62 98 0   1 3003 2715 17% 3 359541 117184 96%
c i  0.34 62 85 0  43 3257 2944 15% 3 359541 117183 96%
c i  0.34 62 79 0  73 3373 3047 15% 3 359541 117182 96%
c i  0.34 62 78 0  74 3379 3050 15% 3 359541 117181 96%
c i  0.35 62 70 0 129 3585 3243 14% 3 359541 117180 96%
c 
c  seconds  reductions  redundant  irredundant
c         MB    restarts       trail       variables
c          level   conflicts       glue          remaining
c 
c i  0.36 62 69 0 137 3613 3267 14% 3 359541 117179 96%
c i  0.36 62 69 0 137 3614 3267 14% 3 359541 117178 96%
c i  0.36 62 62 0 159 3871 3502 13% 3 359541 117177 96%
c i  0.38 62 58 0 186 4097 3713 12% 3 359541 117176 95%
c i  0.38 62 57 0 189 4118 3732 12% 3 359541 117175 95%
c i  0.38 62 56 0 189 4247 3834 12% 3 359541 117166 95%
c i  0.38 62 56 0 189 4251 3836 12% 3 359541 117164 95%
c i  0.38 62 56 0 189 4296 3875 12% 3 359541 117155 95%
c i  0.38 62 57 0 189 4300 3877 12% 3 359541 117153 95%
c i  0.38 62 57 0 189 4345 3916 12% 3 359541 117144 95%
c i  0.38 62 57 0 189 4349 3918 12% 3 359541 117142 95%
c i  0.38 62 59 0 189 4445 4006 13% 3 359541 117141 95%
c i  0.38 62 59 0 189 4449 4009 13% 3 359541 117140 95%
c i  0.38 62 60 0 189 4453 4011 13% 3 359541 117138 95%
c i  0.38 62 60 0 189 4466 4021 13% 3 359541 117137 95%
c i  0.38 62 61 0 189 4495 4047 13% 3 359541 117136 95%
c i  0.39 62 62 0 199 4626 4170 13% 3 359541 117135 95%
c i  0.40 62 61 0 213 4679 4214 13% 3 359541 117134 95%
c i  0.40 62 61 0 213 4696 4226 13% 3 359541 117133 95%
c i  0.40 62 61 0 216 4755 4277 13% 3 359541 117132 95%
c 
c  seconds  reductions  redundant  irredundant
c         MB    restarts       trail       variables
c          level   conflicts       glue          remaining
c 
c i  0.40 62 61 0 216 4757 4278 13% 3 359541 117131 95%
c i  0.40 62 60 0 216 4787 4303 13% 3 359541 117130 95%
c i  0.41 62 57 0 221 5111 4574 12% 3 359541 117128 95%
c i  0.41 62 57 0 221 5112 4574 12% 3 359541 117008 95%
... skipped 328 lines ...
c i 23.91 85 70 0 10100 117099 105398 22% 4 341412 112009 91%
c i 24.14 85 70 0 10159 117432 105712 23% 4 341412 111866 91%
c i 24.24 85 69 0 10186 117538 105804 23% 4 341412 111856 91%
c i 24.24 85 69 0 10189 117549 105808 23% 4 341412 111855 91%
c i 24.31 85 69 0 10203 117751 105991 23% 4 341412 111854 91%
c i 25.68 85 68 0 10587 119798 107846 23% 4 341412 111844 91%
c i 25.72 85 68 0 10587 119955 107939 23% 4 341412 111687 91%
c W 25.89 90 68 0 10588 120023 102854 23% 4 326578 111687 91%
c i 26.21 90 68 0 10704 120488 103261 23% 4 326578 111541 91%
c i 26.25 90 68 0 10727 120599 103340 23% 4 326578 111395 91%
c i 27.32 90 67 0 11045 123443 105956 23% 4 326578 111394 91%
c i 27.62 90 67 0 11158 124257 106691 23% 5 326578 111270 91%
c i 27.85 90 67 0 11203 124473 106892 23% 5 326578 111260 91%
c 
c  seconds  reductions       redundant   irredundant
c         MB     restarts            trail       variables
c          level      conflicts          glue          remaining
c 
c i 28.44 90 66 0 11376 125450 107790 24% 5 326578 111259 91%
c i 28.44 90 66 0 11377 125452 107791 24% 5 326578 111258 91%
c i 28.44 90 66 0 11377 125455 107791 24% 5 326578 111257 91%
c i 28.55 90 66 0 11388 125543 107874 24% 5 326578 111247 91%
c i 28.55 90 66 0 11388 125546 107875 24% 5 326578 111246 91%
c i 28.65 90 66 0 11415 125733 108027 24% 5 326578 111118 91%
c i 29.11 90 66 0 11523 126794 108963 24% 5 326578 111117 91%
c i 29.22 90 66 0 11544 126971 109109 24% 5 326578 111097 91%
c } 29.24 90 66 0 11545 127008 109145 24% 5 326578 111097 91%
c [ 29.24 90 197 0 11545 127008 109145 36% 7 326578 111097 91%
c i 29.58 90 192 0 11545 128851 110800 36% 7 326578 111087 91%
c i 30.56 90 182 0 11547 132634 114130 37% 8 326578 111085 91%
c i 30.57 90 181 0 11547 132694 114179 37% 8 326578 111084 91%
c i 31.47 90 177 0 11548 134913 116113 38% 8 326578 110845 90%
c i 31.78 90 176 0 11549 135623 116731 38% 8 326578 110763 90%
c B 31.86 90 174 0 11549 136024 117095 38% 8 326578 110763 90%
c i 36.61 90 146 0 11553 147867 126354 39% 8 326578 110762 90%
c i 36.88 90 145 0 11553 148253 126535 39% 8 326578 110752 90%
c i 37.03 90 143 0 11553 148696 126830 39% 8 326578 109974 90%
c i 37.03 90 143 0 11553 148731 126840 39% 8 326578 109383 89%
c 
c  seconds   reductions       redundant   irredundant
c         MB      restarts            trail       variables
c           level      conflicts          glue          remaining
c 
c i 37.03 90 143 0 11553 148750 126849 39% 8 326578 104119 85%
c ] 37.03 90 143 0 11553 148752 126849 39% 8 326578 102549 84%
c 0 37.03 90 143 0 11553 148752 126849 39% 8 326578 102549 84%
c 
c --- [ result ] -------------------------------------------------------------
c 
s UNSATISFIABLE
c 
c --- [ run-time profiling ] -------------------------------------------------
c 
c process time taken by individual solving procedures
c (percentage relative to process time for solving)
c 
c        36.97  100.00% search
c        23.14   62.59% unstable
c        13.32   36.02% stable
c         0.49    1.33% walk
c         0.06    0.17% parse
c         0.02    0.06% lucky
c         0.00    0.00% simplify
c   =================================
c        36.97   99.83% solve
c 
c last line shows process time for solving
c (percentage relative to total process time)
c 
c --- [ statistics ] ---------------------------------------------------------
c 
c chronological:             59594        40.06 %  of conflicts
c conflicts:                148752      4023.57    per second
c decisions:                804049     21748.60    per second
c fixed:                     20149        16.42 %  of all variables
c learned:                  143577        96.52 %  per conflict
c learned_lits:            3660525       100.00 %  learned literals
c minimized:                     0         0.00 %  learned literals
c shrunken:                 728846        19.91 %  learned literals
c minishrunken:             864907        23.63 %  learned literals
c otfs:                       1302         0.88 %  of conflict
c propagations:          377310261        10.21 M  per second
c rephased:                     16      9297.00    interval
c restarts:                  11553        12.88    interval
c stabilizing:                   4        42.82 %  of conflicts
c subsumed:                  10755         2.14 %  of all clauses
c strengthened:               1227         0.24 %  of all clauses
c walked:                        4     37188.00    interval
c 
c seconds are measured in process time for solving
c 
c --- [ resources ] ----------------------------------------------------------
c 
c total process time since initialization:        37.03    seconds
c total real time since initialization:           37.24    seconds
c maximum resident set size of process:          105.40    MB
c 
c --- [ shutting down ] ------------------------------------------------------
c 
c exit 20
